0 26 
1 29 
2 29 
3 28 
4 27 
5 25 
6 24 
7 26 
8 28 
9 28 
10 28 
11 27 
12 25 
13 23 
14 24 
15 24 
16 22 
17 21 
18 20 
19 19 
20 18 
21 15 
22 14 
23 15 
24 14 
25 15 
26 15 
27 15 
28 14 
29 13 
30 12 
31 11 
32 10 
33 8 
34 7 
35 6 
36 5 
37 4 
38 2 
39 1 
40 0 
41 0 

